606,880
677,435
681,-134
628,433
810,805
857,648
518,86
561,776
300,25
366,177
1045,670
452,721
533,258
937,489
745,605
580,719
427,152
178,485
464,833
597,322
1023,517
281,610
664,430
450,860
639,448
792,748
681,226
